<number of tasks>
50

<cycle time>
1000

<order strength>
0.203


<task times>
1 394
2 639
3 470
4 226
5 608
6 582
7 440
8 497
9 678
10 699
11 345
12 471
13 479
14 650
15 579
16 673
17 698
18 634
19 508
20 476
21 537
22 477
23 350
24 503
25 473
26 553
27 591
28 648
29 661
30 558
31 637
32 689
33 434
34 586
35 428
36 319
37 553
38 227
39 387
40 425
41 361
42 539
43 429
44 472
45 470
46 452
47 517
48 511
49 459
50 790

<precedence relations>
1,21
2,21
3,8
3,13
4,12
5,7
5,11
6,9
6,10
7,21
8,18
9,16
9,41
10,17
10,49
11,19
11,20
12,14
12,15
14,21
15,21
16,22
17,23
18,24
20,25
20,26
21,27
21,28
21,29
21,30
21,35
21,49
22,33
23,31
24,34
25,32
26,36
29,40
31,37
32,38
35,39
36,41
37,43
38,42
39,45
39,46
40,44
41,47
41,48
42,48
44,48
47,49
47,50

<end>
